LatticeConstant 1.0 Ang
%block LatticeVectors
 2.45951215 0.00000000 0.00000000
 0.00000000 28.52000000 0.00000000
 0.00000000 0.00000000 14.20000000
%endblock LatticeVectors

NumberOfAtoms 8
AtomicCoordinatesFormat Ang
%block AtomicCoordinatesAndAtomicSpecies
  0.00000000 10.00000000  0.00000000 1 # 1: C
  0.00000000 12.84000000  0.00000000 1 # 2: C
  0.00000000 14.26000000  0.00000000 1 # 3: C
  0.00000000 17.10000000  0.00000000 1 # 4: C
  1.22975607 10.71000000  0.00000000 1 # 5: C
  1.22975607 12.13000000  0.00000000 1 # 6: C
  1.22975607 14.97000000  0.00000000 1 # 7: C
  1.22975607 16.39000000  0.00000000 1 # 8: C
%endblock AtomicCoordinatesAndAtomicSpecies

NumberOfSpecies 1
%block ChemicalSpeciesLabel
 1 6 C
%endblock ChemicalSpeciesLabel

Kgrid
%block kgrid.MonkhorstPack
   4 0 0  0
   0 1 0  0
   0 0 1  0
%endblock kgrid.MonkhorstPack

TS.HS.Save true
